c Reduced graph for ash331GPIA generated by Cyril Grelier
p edge 661 4180
e 1 2
e 1 4
e 1 5
e 1 8
e 1 9
e 1 12
e 1 13
e 1 17
e 1 22
e 1 23
e 1 25
e 1 27
e 1 29
e 1 37
e 1 39
e 1 42
e 1 51
e 1 54
e 1 55
e 1 58
e 1 59
e 1 82
e 1 126
e 2 3
e 2 6
e 2 7
e 2 10
e 2 11
e 2 14
e 2 18
e 2 21
e 2 24
e 2 26
e 2 28
e 2 30
e 2 35
e 2 36
e 2 38
e 2 41
e 2 52
e 2 53
e 2 56
e 2 57
e 2 83
e 2 127
e 3 4
e 3 6
e 3 8
e 3 12
e 3 16
e 3 20
e 3 22
e 3 33
e 3 37
e 3 39
e 3 40
e 3 44
e 3 49
e 3 51
e 3 55
e 3 58
e 3 59
e 3 60
e 3 72
e 3 74
e 3 82
e 4 5
e 4 7
e 4 11
e 4 15
e 4 19
e 4 21
e 4 34
e 4 35
e 4 36
e 4 38
e 4 43
e 4 50
e 4 52
e 4 56
e 4 57
e 4 61
e 4 73
e 4 75
e 4 83
e 4 84
e 5 6
e 5 10
e 5 14
e 5 16
e 5 18
e 5 20
e 5 24
e 5 26
e 5 28
e 5 30
e 5 33
e 5 40
e 5 41
e 5 44
e 5 49
e 5 53
e 5 60
e 5 72
e 5 74
e 5 127
e 6 9
e 6 13
e 6 15
e 6 17
e 6 19
e 6 23
e 6 25
e 6 27
e 6 29
e 6 34
e 6 42
e 6 43
e 6 50
e 6 54
e 6 61
e 6 73
e 6 75
e 6 84
e 6 126
e 7 8
e 7 10
e 7 12
e 7 15
e 7 22
e 7 31
e 7 37
e 7 39
e 7 45
e 7 47
e 7 51
e 7 55
e 7 58
e 7 59
e 7 63
e 7 64
e 7 66
e 7 68
e 7 82
e 8 9
e 8 11
e 8 16
e 8 21
e 8 32
e 8 35
e 8 36
e 8 38
e 8 46
e 8 48
e 8 52
e 8 56
e 8 57
e 8 62
e 8 65
e 8 67
e 8 69
e 8 83
e 9 10
e 9 14
e 9 15
e 9 18
e 9 24
e 9 26
e 9 28
e 9 30
e 9 31
e 9 41
e 9 45
e 9 47
e 9 53
e 9 63
e 9 64
e 9 66
e 9 68
e 9 127
e 10 13
e 10 16
e 10 17
e 10 23
e 10 25
e 10 27
e 10 29
e 10 32
e 10 42
e 10 46
e 10 48
e 10 54
e 10 62
e 10 65
e 10 67
e 10 69
e 10 126
e 11 12
e 11 14
e 11 19
e 11 22
e 11 32
e 11 37
e 11 39
e 11 51
e 11 55
e 11 58
e 11 59
e 11 70
e 11 82
e 11 86
e 11 124
e 11 132
e 11 238
e 12 13
e 12 20
e 12 21
e 12 31
e 12 35
e 12 36
e 12 38
e 12 52
e 12 56
e 12 57
e 12 71
e 12 83
e 12 85
e 12 123
e 12 125
e 12 133
e 13 14
e 13 18
e 13 19
e 13 24
e 13 26
e 13 28
e 13 30
e 13 32
e 13 41
e 13 53
e 13 70
e 13 86
e 13 124
e 13 127
e 13 132
e 13 238
e 14 17
e 14 20
e 14 23
e 14 25
e 14 27
e 14 29
e 14 31
e 14 42
e 14 54
e 14 71
e 14 85
e 14 123
e 14 125
e 14 126
e 14 133
e 15 16
e 15 20
e 15 32
e 15 33
e 15 40
e 15 44
e 15 46
e 15 48
e 15 49
e 15 60
e 15 62
e 15 65
e 15 67
e 15 69
e 15 72
e 15 74
e 16 19
e 16 31
e 16 34
e 16 43
e 16 45
e 16 47
e 16 50
e 16 61
e 16 63
e 16 64
e 16 66
e 16 68
e 16 73
e 16 75
e 16 84
e 17 18
e 17 24
e 17 26
e 17 28
e 17 30
e 17 41
e 17 48
e 17 53
e 17 71
e 17 87
e 17 89
e 17 127
e 17 131
e 17 138
e 17 140
e 18 23
e 18 25
e 18 27
e 18 29
e 18 42
e 18 47
e 18 54
e 18 70
e 18 88
e 18 90
e 18 126
e 18 130
e 18 139
e 18 141
e 19 20
e 19 31
e 19 33
e 19 40
e 19 44
e 19 49
e 19 60
e 19 71
e 19 72
e 19 74
e 19 85
e 19 123
e 19 125
e 19 133
e 20 32
e 20 34
e 20 43
e 20 50
e 20 61
e 20 70
e 20 73
e 20 75
e 20 84
e 20 86
e 20 124
e 20 132
e 20 238
e 21 22
e 21 24
e 21 37
e 21 39
e 21 43
e 21 51
e 21 55
e 21 58
e 21 59
e 21 62
e 21 82
e 21 85
e 21 128
e 21 130
e 22 23
e 22 35
e 22 36
e 22 38
e 22 44
e 22 52
e 22 56
e 22 57
e 22 63
e 22 83
e 22 86
e 22 129
e 22 131
e 23 24
e 23 26
e 23 28
e 23 30
e 23 41
e 23 43
e 23 53
e 23 62
e 23 85
e 23 127
e 23 128
e 23 130
e 24 25
e 24 27
e 24 29
e 24 42
e 24 44
e 24 54
e 24 63
e 24 86
e 24 126
e 24 129
e 24 131
e 25 26
e 25 28
e 25 30
e 25 41
e 25 53
e 25 127
e 25 134
e 25 243
e 25 245
e 25 247
e 25 368
e 25 570
e 26 27
e 26 29
e 26 42
e 26 54
e 26 126
e 26 135
e 26 244
e 26 246
e 26 248
e 26 367
e 26 569
e 27 28
e 27 30
e 27 41
e 27 53
e 27 65
e 27 127
e 27 136
e 27 246
e 27 249
e 27 251
e 27 373
e 28 29
e 28 42
e 28 54
e 28 64
e 28 126
e 28 137
e 28 245
e 28 250
e 28 252
e 28 374
e 29 30
e 29 41
e 29 53
e 29 67
e 29 127
e 29 248
e 29 250
e 29 253
e 29 375
e 29 457
e 30 42
e 30 54
e 30 66
e 30 126
e 30 247
e 30 249
e 30 254
e 30 376
e 30 458
e 31 32
e 31 46
e 31 48
e 31 62
e 31 65
e 31 67
e 31 69
e 31 70
e 31 86
e 31 124
e 31 132
e 31 238
e 32 45
e 32 47
e 32 63
e 32 64
e 32 66
e 32 68
e 32 71
e 32 85
e 32 123
e 32 125
e 32 133
e 33 34
e 33 43
e 33 50
e 33 61
e 33 73
e 33 75
e 33 84
e 33 88
e 33 91
e 33 129
e 33 142
e 33 144
e 33 240
e 33 242
e 34 40
e 34 44
e 34 49
e 34 60
e 34 72
e 34 74
e 34 87
e 34 92
e 34 128
e 34 143
e 34 145
e 34 239
e 34 241
e 35 37
e 35 39
e 35 51
e 35 55
e 35 58
e 35 59
e 35 82
e 35 84
e 35 123
e 35 561
e 35 564
e 35 619
e 36 37
e 36 39
e 36 41
e 36 51
e 36 55
e 36 58
e 36 59
e 36 82
e 36 367
e 36 515
e 36 517
e 36 624
e 37 38
e 37 42
e 37 52
e 37 56
e 37 57
e 37 83
e 37 368
e 37 514
e 37 516
e 37 625
e 38 39
e 38 51
e 38 55
e 38 58
e 38 59
e 38 75
e 38 82
e 38 133
e 38 239
e 38 455
e 38 520
e 39 52
e 39 56
e 39 57
e 39 74
e 39 83
e 39 132
e 39 240
e 39 456
e 39 519
e 40 43
e 40 50
e 40 58
e 40 61
e 40 73
e 40 75
e 40 84
e 40 125
e 40 518
e 40 519
e 40 621
e 40 623
e 41 42
e 41 54
e 41 126
e 41 368
e 41 514
e 41 516
e 41 625
e 42 53
e 42 127
e 42 367
e 42 515
e 42 517
e 42 624
e 43 44
e 43 49
e 43 60
e 43 63
e 43 72
e 43 74
e 43 86
e 43 129
e 43 131
e 44 50
e 44 61
e 44 62
e 44 73
e 44 75
e 44 84
e 44 85
e 44 128
e 44 130
e 45 46
e 45 48
e 45 62
e 45 65
e 45 67
e 45 69
e 45 76
e 45 90
e 45 92
e 45 93
e 45 147
e 45 148
e 45 377
e 46 47
e 46 63
e 46 64
e 46 66
e 46 68
e 46 77
e 46 89
e 46 91
e 46 94
e 46 146
e 46 149
e 46 378
e 47 48
e 47 62
e 47 65
e 47 67
e 47 69
e 47 71
e 47 87
e 47 89
e 47 131
e 47 138
e 47 140
e 48 63
e 48 64
e 48 66
e 48 68
e 48 70
e 48 88
e 48 90
e 48 130
e 48 139
e 48 141
e 49 50
e 49 61
e 49 73
e 49 75
e 49 84
e 49 139
e 49 143
e 49 149
e 49 150
e 49 257
e 49 370
e 50 60
e 50 72
e 50 74
e 50 138
e 50 142
e 50 148
e 50 151
e 50 258
e 50 369
e 51 52
e 51 56
e 51 57
e 51 83
e 51 515
e 51 561
e 51 563
e 51 620
e 52 55
e 52 58
e 52 59
e 52 82
e 52 513
e 52 514
e 52 562
e 52 621
e 53 54
e 53 56
e 53 126
e 53 517
e 53 562
e 53 622
e 54 55
e 54 127
e 54 516
e 54 563
e 54 623
e 55 56
e 55 57
e 55 83
e 55 517
e 55 562
e 55 622
e 56 58
e 56 59
e 56 82
e 56 516
e 56 563
e 56 623
e 57 58
e 57 59
e 57 61
e 57 82
e 57 125
e 57 518
e 57 519
e 58 83
e 58 238
e 58 520
e 58 564
e 59 60
e 59 83
e 59 124
e 59 513
e 59 518
e 60 61
e 60 73
e 60 75
e 60 84
e 60 123
e 60 561
e 60 564
e 60 619
e 61 72
e 61 74
e 61 83
e 61 238
e 61 520
e 61 564
e 62 63
e 62 64
e 62 66
e 62 68
e 62 86
e 62 129
e 62 131
e 63 65
e 63 67
e 63 69
e 63 85
e 63 128
e 63 130
e 64 65
e 64 67
e 64 69
e 64 136
e 64 246
e 64 249
e 64 251
e 64 373
e 65 66
e 65 68
e 65 137
e 65 245
e 65 250
e 65 252
e 65 374
e 66 67
e 66 69
e 66 248
e 66 250
e 66 253
e 66 375
e 66 457
e 67 68
e 67 247
e 67 249
e 67 254
e 67 376
e 67 458
e 68 69
e 68 141
e 68 146
e 68 254
e 68 255
e 68 459
e 68 461
e 69 140
e 69 147
e 69 253
e 69 256
e 69 460
e 69 462
e 70 71
e 70 85
e 70 87
e 70 89
e 70 123
e 70 125
e 70 131
e 70 133
e 70 138
e 70 140
e 71 86
e 71 88
e 71 90
e 71 124
e 71 130
e 71 132
e 71 139
e 71 141
e 71 238
e 72 73
e 72 75
e 72 84
e 72 241
e 72 369
e 72 371
e 72 456
e 72 565
e 73 74
e 73 242
e 73 370
e 73 372
e 73 455
e 73 566
e 74 75
e 74 84
e 74 133
e 74 239
e 74 455
e 74 520
e 75 132
e 75 240
e 75 456
e 75 519
e 76 77
e 76 79
e 76 80
e 76 89
e 76 91
e 76 94
e 76 100
e 76 102
e 76 110
e 76 146
e 76 149
e 76 177
e 76 178
e 76 274
e 76 378
e 77 78
e 77 81
e 77 90
e 77 92
e 77 93
e 77 99
e 77 101
e 77 109
e 77 147
e 77 148
e 77 176
e 77 179
e 77 273
e 77 377
e 78 79
e 78 80
e 78 93
e 78 100
e 78 102
e 78 110
e 78 150
e 78 152
e 78 165
e 78 177
e 78 178
e 78 274
e 78 276
e 78 379
e 78 385
e 79 81
e 79 94
e 79 99
e 79 101
e 79 109
e 79 151
e 79 153
e 79 164
e 79 176
e 79 179
e 79 273
e 79 275
e 79 380
e 79 386
e 80 81
e 80 99
e 80 101
e 80 109
e 80 111
e 80 176
e 80 179
e 80 180
e 80 182
e 80 273
e 80 292
e 80 294
e 80 402
e 80 403
e 81 100
e 81 102
e 81 110
e 81 112
e 81 177
e 81 178
e 81 181
e 81 183
e 81 274
e 81 291
e 81 293
e 81 401
e 81 404
e 82 83
e 82 619
e 82 621
e 82 623
e 83 620
e 83 622
e 84 124
e 84 513
e 84 518
e 85 86
e 85 124
e 85 129
e 85 131
e 85 132
e 85 238
e 86 123
e 86 125
e 86 128
e 86 130
e 86 133
e 87 88
e 87 90
e 87 91
e 87 129
e 87 130
e 87 139
e 87 141
e 87 142
e 87 144
e 87 240
e 87 242
e 88 89
e 88 92
e 88 128
e 88 131
e 88 138
e 88 140
e 88 143
e 88 145
e 88 239
e 88 241
e 89 90
e 89 92
e 89 93
e 89 130
e 89 139
e 89 141
e 89 147
e 89 148
e 89 377
e 90 91
e 90 94
e 90 131
e 90 138
e 90 140
e 90 146
e 90 149
e 90 378
e 91 92
e 91 93
e 91 128
e 91 143
e 91 145
e 91 147
e 91 148
e 91 239
e 91 241
e 91 377
e 92 94
e 92 129
e 92 142
e 92 144
e 92 146
e 92 149
e 92 240
e 92 242
e 92 378
e 93 94
e 93 146
e 93 149
e 93 151
e 93 153
e 93 164
e 93 275
e 93 378
e 93 380
e 93 386
e 94 147
e 94 148
e 94 150
e 94 152
e 94 165
e 94 276
e 94 377
e 94 379
e 94 385
e 95 96
e 95 98
e 95 107
e 95 134
e 95 136
e 95 154
e 95 161
e 95 170
e 95 172
e 95 264
e 95 266
e 95 268
e 95 270
e 95 284
e 95 384
e 96 97
e 96 108
e 96 135
e 96 137
e 96 155
e 96 160
e 96 171
e 96 173
e 96 263
e 96 265
e 96 267
e 96 269
e 96 283
e 96 383
e 97 98
e 97 103
e 97 105
e 97 134
e 97 136
e 97 154
e 97 159
e 97 166
e 97 168
e 97 264
e 97 266
e 97 268
e 97 280
e 97 281
e 98 104
e 98 106
e 98 135
e 98 137
e 98 155
e 98 158
e 98 167
e 98 169
e 98 263
e 98 265
e 98 267
e 98 279
e 98 282
e 99 100
e 99 102
e 99 110
e 99 161
e 99 163
e 99 177
e 99 178
e 99 255
e 99 272
e 99 274
e 99 469
e 99 472
e 100 101
e 100 109
e 100 160
e 100 162
e 100 176
e 100 179
e 100 256
e 100 271
e 100 273
e 100 470
e 100 471
e 101 102
e 101 110
e 101 164
e 101 177
e 101 178
e 101 259
e 101 274
e 101 388
e 101 390
e 101 465
e 101 474
e 102 109
e 102 165
e 102 176
e 102 179
e 102 260
e 102 273
e 102 387
e 102 389
e 102 466
e 102 473
e 103 104
e 103 106
e 103 113
e 103 157
e 103 158
e 103 167
e 103 169
e 103 185
e 103 188
e 103 190
e 103 278
e 103 279
e 103 282
e 103 297
e 104 105
e 104 114
e 104 156
e 104 159
e 104 166
e 104 168
e 104 184
e 104 189
e 104 191
e 104 277
e 104 280
e 104 281
e 104 298
e 105 106
e 105 108
e 105 115
e 105 158
e 105 163
e 105 167
e 105 169
e 105 175
e 105 193
e 105 196
e 105 279
e 105 282
e 105 286
e 106 107
e 106 116
e 106 159
e 106 162
e 106 166
e 106 168
e 106 174
e 106 192
e 106 197
e 106 280
e 106 281
e 106 285
e 107 108
e 107 115
e 107 160
e 107 163
e 107 171
e 107 173
e 107 175
e 107 193
e 107 196
e 107 269
e 107 283
e 107 286
e 107 383
e 108 116
e 108 161
e 108 162
e 108 170
e 108 172
e 108 174
e 108 192
e 108 197
e 108 270
e 108 284
e 108 285
e 108 384
e 109 110
e 109 172
e 109 175
e 109 177
e 109 178
e 109 271
e 109 274
e 109 288
e 109 290
e 109 396
e 110 173
e 110 174
e 110 176
e 110 179
e 110 272
e 110 273
e 110 287
e 110 289
e 110 395
e 111 112
e 111 117
e 111 181
e 111 183
e 111 201
e 111 204
e 111 291
e 111 293
e 111 317
e 111 401
e 111 404
e 111 406
e 111 485
e 111 487
e 112 118
e 112 180
e 112 182
e 112 200
e 112 205
e 112 292
e 112 294
e 112 318
e 112 402
e 112 403
e 112 405
e 112 486
e 112 488
e 113 114
e 113 119
e 113 156
e 113 184
e 113 187
e 113 189
e 113 191
e 113 206
e 113 208
e 113 210
e 113 212
e 113 277
e 113 298
e 113 320
e 114 120
e 114 157
e 114 185
e 114 186
e 114 188
e 114 190
e 114 207
e 114 209
e 114 211
e 114 213
e 114 278
e 114 297
e 114 319
e 115 116
e 115 162
e 115 174
e 115 192
e 115 195
e 115 197
e 115 199
e 115 215
e 115 216
e 115 218
e 115 220
e 115 222
e 115 285
e 116 163
e 116 175
e 116 193
e 116 194
e 116 196
e 116 198
e 116 214
e 116 217
e 116 219
e 116 221
e 116 223
e 116 286
e 117 118
e 117 200
e 117 203
e 117 205
e 117 225
e 117 227
e 117 318
e 117 329
e 117 331
e 117 333
e 117 405
e 117 486
e 117 488
e 117 489
e 118 201
e 118 202
e 118 204
e 118 224
e 118 226
e 118 317
e 118 330
e 118 332
e 118 334
e 118 406
e 118 485
e 118 487
e 118 490
e 119 120
e 119 186
e 119 207
e 119 209
e 119 211
e 119 213
e 119 229
e 119 231
e 119 319
e 119 344
e 119 353
e 119 416
e 119 429
e 119 504
e 120 187
e 120 206
e 120 208
e 120 210
e 120 212
e 120 228
e 120 230
e 120 320
e 120 343
e 120 354
e 120 415
e 120 430
e 120 503
e 121 122
e 121 232
e 121 235
e 121 237
e 121 358
e 121 359
e 121 362
e 121 364
e 121 366
e 121 446
e 121 448
e 121 451
e 121 453
e 121 510
e 121 511
e 122 233
e 122 234
e 122 236
e 122 357
e 122 360
e 122 361
e 122 363
e 122 365
e 122 445
e 122 447
e 122 452
e 122 454
e 122 509
e 122 512
e 123 124
e 123 125
e 123 132
e 123 238
e 123 513
e 123 518
e 124 125
e 124 133
e 124 561
e 124 564
e 124 619
e 125 132
e 125 238
e 125 520
e 125 564
e 126 127
e 126 569
e 126 625
e 127 570
e 127 624
e 128 129
e 128 131
e 128 142
e 128 144
e 128 240
e 128 242
e 129 130
e 129 143
e 129 145
e 129 239
e 129 241
e 130 131
e 130 138
e 130 140
e 131 139
e 131 141
e 132 133
e 132 239
e 132 455
e 132 520
e 133 238
e 133 240
e 133 456
e 133 519
e 134 135
e 134 137
e 134 155
e 134 244
e 134 246
e 134 248
e 134 263
e 134 265
e 134 267
e 134 367
e 134 569
e 135 136
e 135 154
e 135 243
e 135 245
e 135 247
e 135 264
e 135 266
e 135 268
e 135 368
e 135 570
e 136 137
e 136 155
e 136 245
e 136 250
e 136 252
e 136 263
e 136 265
e 136 267
e 136 374
e 137 154
e 137 246
e 137 249
e 137 251
e 137 264
e 137 266
e 137 268
e 137 373
e 138 139
e 138 141
e 138 143
e 138 149
e 138 150
e 138 257
e 138 370
e 139 140
e 139 142
e 139 148
e 139 151
e 139 258
e 139 369
e 140 141
e 140 146
e 140 254
e 140 255
e 140 459
e 140 461
e 141 147
e 141 253
e 141 256
e 141 460
e 141 462
e 142 143
e 142 145
e 142 149
e 142 150
e 142 239
e 142 241
e 142 257
e 142 370
e 143 144
e 143 148
e 143 151
e 143 240
e 143 242
e 143 258
e 143 369
e 144 145
e 144 152
e 144 239
e 144 241
e 144 258
e 144 259
e 144 372
e 144 463
e 144 522
e 145 153
e 145 240
e 145 242
e 145 257
e 145 260
e 145 371
e 145 464
e 145 521
e 146 147
e 146 148
e 146 253
e 146 256
e 146 377
e 146 460
e 146 462
e 147 149
e 147 254
e 147 255
e 147 378
e 147 459
e 147 461
e 148 149
e 148 150
e 148 257
e 148 370
e 148 378
e 149 151
e 149 258
e 149 369
e 149 377
e 150 151
e 150 153
e 150 164
e 150 258
e 150 275
e 150 369
e 150 380
e 150 386
e 151 152
e 151 165
e 151 257
e 151 276
e 151 370
e 151 379
e 151 385
e 152 153
e 152 164
e 152 257
e 152 260
e 152 275
e 152 371
e 152 380
e 152 386
e 152 464
e 152 521
e 153 165
e 153 258
e 153 259
e 153 276
e 153 372
e 153 379
e 153 385
e 153 463
e 153 522
e 154 155
e 154 157
e 154 159
e 154 243
e 154 251
e 154 262
e 154 263
e 154 265
e 154 267
e 154 382
e 155 156
e 155 158
e 155 244
e 155 252
e 155 261
e 155 264
e 155 266
e 155 268
e 155 381
e 156 157
e 156 159
e 156 185
e 156 188
e 156 190
e 156 243
e 156 251
e 156 262
e 156 278
e 156 297
e 156 382
e 157 158
e 157 184
e 157 189
e 157 191
e 157 244
e 157 252
e 157 261
e 157 277
e 157 298
e 157 381
e 158 159
e 158 166
e 158 168
e 158 243
e 158 251
e 158 262
e 158 280
e 158 281
e 158 382
e 159 167
e 159 169
e 159 244
e 159 252
e 159 261
e 159 279
e 159 282
e 159 381
e 160 161
e 160 163
e 160 170
e 160 172
e 160 255
e 160 270
e 160 272
e 160 284
e 160 384
e 160 469
e 160 472
e 161 162
e 161 171
e 161 173
e 161 256
e 161 269
e 161 271
e 161 283
e 161 383
e 161 470
e 161 471
e 162 163
e 162 175
e 162 193
e 162 196
e 162 255
e 162 272
e 162 286
e 162 469
e 162 472
e 163 174
e 163 192
e 163 197
e 163 256
e 163 271
e 163 285
e 163 470
e 163 471
e 164 165
e 164 260
e 164 276
e 164 379
e 164 385
e 164 387
e 164 389
e 164 466
e 164 473
e 165 259
e 165 275
e 165 380
e 165 386
e 165 388
e 165 390
e 165 465
e 165 474
e 166 167
e 166 169
e 166 189
e 166 192
e 166 194
e 166 279
e 166 282
e 166 299
e 166 301
e 166 394
e 167 168
e 167 188
e 167 193
e 167 195
e 167 280
e 167 281
e 167 300
e 167 302
e 167 393
e 168 169
e 168 191
e 168 209
e 168 214
e 168 279
e 168 282
e 168 300
e 168 321
e 168 323
e 169 190
e 169 208
e 169 215
e 169 280
e 169 281
e 169 299
e 169 322
e 169 324
e 170 171
e 170 173
e 170 197
e 170 198
e 170 269
e 170 283
e 170 288
e 170 303
e 170 305
e 170 307
e 170 383
e 171 172
e 171 196
e 171 199
e 171 270
e 171 284
e 171 287
e 171 304
e 171 306
e 171 308
e 171 384
e 172 173
e 172 174
e 172 269
e 172 272
e 172 283
e 172 287
e 172 289
e 172 383
e 172 395
e 173 175
e 173 270
e 173 271
e 173 284
e 173 288
e 173 290
e 173 384
e 173 396
e 174 175
e 174 193
e 174 196
e 174 271
e 174 286
e 174 288
e 174 290
e 174 396
e 175 192
e 175 197
e 175 272
e 175 285
e 175 287
e 175 289
e 175 395
e 176 177
e 176 178
e 176 274
e 176 292
e 176 395
e 176 398
e 176 400
e 176 480
e 177 179
e 177 273
e 177 291
e 177 396
e 177 397
e 177 399
e 177 479
e 178 179
e 178 273
e 178 293
e 178 390
e 178 476
e 178 480
e 178 529
e 179 274
e 179 294
e 179 389
e 179 475
e 179 479
e 179 530
e 180 181
e 180 183
e 180 290
e 180 291
e 180 293
e 180 304
e 180 309
e 180 311
e 180 313
e 180 398
e 180 401
e 180 404
e 181 182
e 181 289
e 181 292
e 181 294
e 181 303
e 181 310
e 181 312
e 181 314
e 181 397
e 181 402
e 181 403
e 182 183
e 182 200
e 182 202
e 182 291
e 182 293
e 182 310
e 182 315
e 182 400
e 182 401
e 182 404
e 182 482
e 183 201
e 183 203
e 183 292
e 183 294
e 183 309
e 183 316
e 183 399
e 183 402
e 183 403
e 183 481
e 184 185
e 184 187
e 184 188
e 184 190
e 184 261
e 184 278
e 184 296
e 184 297
e 184 391
e 184 408
e 184 484
e 185 186
e 185 189
e 185 191
e 185 262
e 185 277
e 185 295
e 185 298
e 185 392
e 185 407
e 185 483
e 186 187
e 186 206
e 186 208
e 186 210
e 186 212
e 186 261
e 186 296
e 186 320
e 186 391
e 186 408
e 186 484
e 187 207
e 187 209
e 187 211
e 187 213
e 187 262
e 187 295
e 187 319
e 187 392
e 187 407
e 187 483
e 188 189
e 188 191
e 188 192
e 188 194
e 188 277
e 188 298
e 188 299
e 188 301
e 188 394
e 189 190
e 189 193
e 189 195
e 189 278
e 189 297
e 189 300
e 189 302
e 189 393
e 190 191
e 190 209
e 190 214
e 190 277
e 190 298
e 190 300
e 190 321
e 190 323
e 191 208
e 191 215
e 191 278
e 191 297
e 191 299
e 191 322
e 191 324
e 192 193
e 192 195
e 192 196
e 192 286
e 192 300
e 192 302
e 192 393
e 193 194
e 193 197
e 193 285
e 193 299
e 193 301
e 193 394
e 194 195
e 194 199
e 194 215
e 194 216
e 194 218
e 194 220
e 194 222
e 194 300
e 194 302
e 194 393
e 195 198
e 195 214
e 195 217
e 195 219
e 195 221
e 195 223
e 195 299
e 195 301
e 195 394
e 196 197
e 196 198
e 196 285
e 196 288
e 196 303
e 196 305
e 196 307
e 197 199
e 197 286
e 197 287
e 197 304
e 197 306
e 197 308
e 198 199
e 198 215
e 198 216
e 198 218
e 198 220
e 198 222
e 198 287
e 198 304
e 198 306
e 198 308
e 199 214
e 199 217
e 199 219
e 199 221
e 199 223
e 199 288
e 199 303
e 199 305
e 199 307
e 200 201
e 200 203
e 200 204
e 200 309
e 200 316
e 200 317
e 200 399
e 200 406
e 200 481
e 200 485
e 200 487
e 201 202
e 201 205
e 201 310
e 201 315
e 201 318
e 201 400
e 201 405
e 201 482
e 201 486
e 201 488
e 202 203
e 202 225
e 202 227
e 202 309
e 202 316
e 202 329
e 202 331
e 202 333
e 202 399
e 202 481
e 202 489
e 203 224
e 203 226
e 203 310
e 203 315
e 203 330
e 203 332
e 203 334
e 203 400
e 203 482
e 203 490
e 204 205
e 204 226
e 204 308
e 204 314
e 204 316
e 204 318
e 204 326
e 204 405
e 204 413
e 204 486
e 204 488
e 205 227
e 205 307
e 205 313
e 205 315
e 205 317
e 205 325
e 205 406
e 205 414
e 205 485
e 205 487
e 206 207
e 206 209
e 206 211
e 206 213
e 206 219
e 206 302
e 206 319
e 206 324
e 206 338
e 206 341
e 206 419
e 207 208
e 207 210
e 207 212
e 207 218
e 207 301
e 207 320
e 207 323
e 207 337
e 207 342
e 207 420
e 208 209
e 208 211
e 208 213
e 208 214
e 208 300
e 208 319
e 208 321
e 208 323
e 209 210
e 209 212
e 209 215
e 209 299
e 209 320
e 209 322
e 209 324
e 210 211
e 210 213
e 210 228
e 210 296
e 210 319
e 210 335
e 210 410
e 210 492
e 210 533
e 211 212
e 211 229
e 211 295
e 211 320
e 211 336
e 211 409
e 211 491
e 211 534
e 212 213
e 212 230
e 212 319
e 212 322
e 212 336
e 212 337
e 212 339
e 212 417
e 213 231
e 213 320
e 213 321
e 213 335
e 213 338
e 213 340
e 213 418
e 214 215
e 214 216
e 214 218
e 214 220
e 214 222
e 214 299
e 214 322
e 214 324
e 215 217
e 215 219
e 215 221
e 215 223
e 215 300
e 215 321
e 215 323
e 216 217
e 216 219
e 216 221
e 216 223
e 216 224
e 216 306
e 216 312
e 216 325
e 216 327
e 216 411
e 217 218
e 217 220
e 217 222
e 217 225
e 217 305
e 217 311
e 217 326
e 217 328
e 217 412
e 218 219
e 218 221
e 218 223
e 218 302
e 218 324
e 218 338
e 218 341
e 218 419
e 219 220
e 219 222
e 219 301
e 219 323
e 219 337
e 219 342
e 219 420
e 220 221
e 220 223
e 220 340
e 220 342
e 220 345
e 220 347
e 220 422
e 220 423
e 221 222
e 221 339
e 221 341
e 221 346
e 221 348
e 221 421
e 221 424
e 222 223
e 222 328
e 222 346
e 222 349
e 222 351
e 222 425
e 222 427
e 223 327
e 223 345
e 223 350
e 223 352
e 223 426
e 223 428
e 224 225
e 224 227
e 224 305
e 224 311
e 224 326
e 224 328
e 224 329
e 224 331
e 224 333
e 224 412
e 224 489
e 225 226
e 225 306
e 225 312
e 225 325
e 225 327
e 225 330
e 225 332
e 225 334
e 225 411
e 225 490
e 226 227
e 226 307
e 226 313
e 226 315
e 226 325
e 226 329
e 226 331
e 226 333
e 226 414
e 226 489
e 227 308
e 227 314
e 227 316
e 227 326
e 227 330
e 227 332
e 227 334
e 227 413
e 227 490
e 228 229
e 228 231
e 228 295
e 228 336
e 228 344
e 228 353
e 228 409
e 228 416
e 228 429
e 228 491
e 228 504
e 228 534
e 229 230
e 229 296
e 229 335
e 229 343
e 229 354
e 229 410
e 229 415
e 229 430
e 229 492
e 229 503
e 229 533
e 230 231
e 230 321
e 230 335
e 230 338
e 230 340
e 230 344
e 230 353
e 230 416
e 230 418
e 230 429
e 230 504
e 231 322
e 231 336
e 231 337
e 231 339
e 231 343
e 231 354
e 231 415
e 231 417
e 231 430
e 231 503
e 232 233
e 232 234
e 232 351
e 232 355
e 232 360
e 232 361
e 232 363
e 232 437
e 232 440
e 232 442
e 232 445
e 232 447
e 232 541
e 233 235
e 233 352
e 233 356
e 233 359
e 233 362
e 233 364
e 233 438
e 233 439
e 233 441
e 233 446
e 233 448
e 233 542
e 234 235
e 234 236
e 234 359
e 234 362
e 234 364
e 234 444
e 234 446
e 234 448
e 234 450
e 234 506
e 234 508
e 234 551
e 235 237
e 235 360
e 235 361
e 235 363
e 235 443
e 235 445
e 235 447
e 235 449
e 235 505
e 235 507
e 235 552
e 236 237
e 236 358
e 236 366
e 236 443
e 236 449
e 236 451
e 236 453
e 236 505
e 236 507
e 236 510
e 236 511
e 236 552
e 237 357
e 237 365
e 237 444
e 237 450
e 237 452
e 237 454
e 237 506
e 237 508
e 237 509
e 237 512
e 237 551
e 238 518
e 238 519
e 239 240
e 239 242
e 239 456
e 239 519
e 240 241
e 240 455
e 240 520
e 241 242
e 241 370
e 241 372
e 241 455
e 241 566
e 242 369
e 242 371
e 242 456
e 242 565
e 243 244
e 243 246
e 243 248
e 243 252
e 243 261
e 243 367
e 243 381
e 243 569
e 244 245
e 244 247
e 244 251
e 244 262
e 244 368
e 244 382
e 244 570
e 245 246
e 245 248
e 245 249
e 245 251
e 245 367
e 245 373
e 245 569
e 246 247
e 246 250
e 246 252
e 246 368
e 246 374
e 246 570
e 247 248
e 247 250
e 247 253
e 247 367
e 247 375
e 247 457
e 247 569
e 248 249
e 248 254
e 248 368
e 248 376
e 248 458
e 248 570
e 249 250
e 249 252
e 249 253
e 249 374
e 249 375
e 249 457
e 250 251
e 250 254
e 250 373
e 250 376
e 250 458
e 251 252
e 251 261
e 251 374
e 251 381
e 252 262
e 252 373
e 252 382
e 253 254
e 253 255
e 253 376
e 253 458
e 253 459
e 253 461
e 254 256
e 254 375
e 254 457
e 254 460
e 254 462
e 255 256
e 255 271
e 255 460
e 255 462
e 255 470
e 255 471
e 256 272
e 256 459
e 256 461
e 256 469
e 256 472
e 257 258
e 257 259
e 257 369
e 257 372
e 257 463
e 257 522
e 258 260
e 258 370
e 258 371
e 258 464
e 258 521
e 259 260
e 259 371
e 259 387
e 259 389
e 259 464
e 259 466
e 259 473
e 259 521
e 260 372
e 260 388
e 260 390
e 260 463
e 260 465
e 260 474
e 260 522
e 261 262
e 261 295
e 261 382
e 261 392
e 261 407
e 261 483
e 262 296
e 262 381
e 262 391
e 262 408
e 262 484
e 263 264
e 263 266
e 263 268
e 263 269
e 263 374
e 263 376
e 263 467
e 263 525
e 264 265
e 264 267
e 264 270
e 264 373
e 264 375
e 264 468
e 264 526
e 265 266
e 265 268
e 265 277
e 265 279
e 265 382
e 265 391
e 265 477
e 266 267
e 266 278
e 266 280
e 266 381
e 266 392
e 266 478
e 267 268
e 267 282
e 267 283
e 267 285
e 267 393
e 267 468
e 268 281
e 268 284
e 268 286
e 268 394
e 268 467
e 269 270
e 269 284
e 269 373
e 269 375
e 269 384
e 269 468
e 269 526
e 270 283
e 270 374
e 270 376
e 270 383
e 270 467
e 270 525
e 271 272
e 271 287
e 271 289
e 271 395
e 271 469
e 271 472
e 272 288
e 272 290
e 272 396
e 272 470
e 272 471
e 273 274
e 273 377
e 273 386
e 273 461
e 273 471
e 274 378
e 274 385
e 274 462
e 274 472
e 275 276
e 275 379
e 275 385
e 275 388
e 275 475
e 275 524
e 275 527
e 275 568
e 276 380
e 276 386
e 276 387
e 276 476
e 276 523
e 276 528
e 276 567
e 277 278
e 277 280
e 277 297
e 277 381
e 277 392
e 277 478
e 278 279
e 278 298
e 278 382
e 278 391
e 278 477
e 279 280
e 279 281
e 279 381
e 279 392
e 279 478
e 280 282
e 280 382
e 280 391
e 280 477
e 281 282
e 281 283
e 281 285
e 281 393
e 281 468
e 282 284
e 282 286
e 282 394
e 282 467
e 283 284
e 283 286
e 283 384
e 283 394
e 283 467
e 284 285
e 284 383
e 284 393
e 284 468
e 285 286
e 285 394
e 285 467
e 286 393
e 286 468
e 287 288
e 287 290
e 287 303
e 287 305
e 287 307
e 287 396
e 288 289
e 288 304
e 288 306
e 288 308
e 288 395
e 289 290
e 289 304
e 289 309
e 289 311
e 289 313
e 289 396
e 289 398
e 290 303
e 290 310
e 290 312
e 290 314
e 290 395
e 290 397
e 291 292
e 291 294
e 291 395
e 291 398
e 291 400
e 291 402
e 291 403
e 291 480
e 292 293
e 292 396
e 292 397
e 292 399
e 292 401
e 292 404
e 292 479
e 293 294
e 293 389
e 293 402
e 293 403
e 293 475
e 293 479
e 293 530
e 294 390
e 294 401
e 294 404
e 294 476
e 294 480
e 294 529
e 295 296
e 295 335
e 295 391
e 295 408
e 295 410
e 295 484
e 295 492
e 295 533
e 296 336
e 296 392
e 296 407
e 296 409
e 296 483
e 296 491
e 296 534
e 297 298
e 297 319
e 297 408
e 297 409
e 297 478
e 297 531
e 298 320
e 298 407
e 298 410
e 298 477
e 298 532
e 299 300
e 299 302
e 299 321
e 299 323
e 299 393
e 300 301
e 300 322
e 300 324
e 300 394
e 301 302
e 301 324
e 301 338
e 301 341
e 301 393
e 301 419
e 302 323
e 302 337
e 302 342
e 302 394
e 302 420
e 303 304
e 303 306
e 303 308
e 303 309
e 303 311
e 303 313
e 303 398
e 304 305
e 304 307
e 304 310
e 304 312
e 304 314
e 304 397
e 305 306
e 305 308
e 305 312
e 305 325
e 305 327
e 305 411
e 306 307
e 306 311
e 306 326
e 306 328
e 306 412
e 307 308
e 307 314
e 307 316
e 307 326
e 307 413
e 308 313
e 308 315
e 308 325
e 308 414
e 309 310
e 309 312
e 309 314
e 309 315
e 309 397
e 309 400
e 309 482
e 310 311
e 310 313
e 310 316
e 310 398
e 310 399
e 310 481
e 311 312
e 311 314
e 311 325
e 311 327
e 311 397
e 311 411
e 312 313
e 312 326
e 312 328
e 312 398
e 312 412
e 313 314
e 313 316
e 313 326
e 313 397
e 313 413
e 314 315
e 314 325
e 314 398
e 314 414
e 315 316
e 315 326
e 315 399
e 315 413
e 315 481
e 316 325
e 316 400
e 316 414
e 316 482
e 317 318
e 317 330
e 317 405
e 317 486
e 317 488
e 317 574
e 317 575
e 317 577
e 317 630
e 318 329
e 318 406
e 318 485
e 318 487
e 318 573
e 318 576
e 318 578
e 318 631
e 319 320
e 319 407
e 319 410
e 319 477
e 319 532
e 320 408
e 320 409
e 320 478
e 320 531
e 321 322
e 321 324
e 321 336
e 321 337
e 321 339
e 321 417
e 322 323
e 322 335
e 322 338
e 322 340
e 322 418
e 323 324
e 323 338
e 323 341
e 323 419
e 324 337
e 324 342
e 324 420
e 325 326
e 325 328
e 325 412
e 325 413
e 326 327
e 326 411
e 326 414
e 327 328
e 327 346
e 327 349
e 327 351
e 327 412
e 327 425
e 327 427
e 328 345
e 328 350
e 328 352
e 328 411
e 328 426
e 328 428
e 329 330
e 329 332
e 329 334
e 329 490
e 329 574
e 329 575
e 329 577
e 329 630
e 330 331
e 330 333
e 330 489
e 330 573
e 330 576
e 330 578
e 330 631
e 331 332
e 331 334
e 331 412
e 331 414
e 331 426
e 331 490
e 331 495
e 331 497
e 332 333
e 332 411
e 332 413
e 332 425
e 332 489
e 332 496
e 332 498
e 333 334
e 333 490
e 333 498
e 333 499
e 333 501
e 333 579
e 333 581
e 334 489
e 334 497
e 334 500
e 334 502
e 334 580
e 334 582
e 335 336
e 335 337
e 335 339
e 335 409
e 335 417
e 335 491
e 335 534
e 336 338
e 336 340
e 336 410
e 336 418
e 336 492
e 336 533
e 337 338
e 337 340
e 337 341
e 337 418
e 337 419
e 338 339
e 338 342
e 338 417
e 338 420
e 339 340
e 339 342
e 339 345
e 339 347
e 339 418
e 339 422
e 339 423
e 340 341
e 340 346
e 340 348
e 340 417
e 340 421
e 340 424
e 341 342
e 341 345
e 341 347
e 341 420
e 341 422
e 341 423
e 342 346
e 342 348
e 342 419
e 342 421
e 342 424
e 343 344
e 343 353
e 343 416
e 343 417
e 343 419
e 343 422
e 343 429
e 343 494
e 343 504
e 343 536
e 344 354
e 344 415
e 344 418
e 344 420
e 344 421
e 344 430
e 344 493
e 344 503
e 344 535
e 345 346
e 345 348
e 345 349
e 345 351
e 345 421
e 345 424
e 345 425
e 345 427
e 346 347
e 346 350
e 346 352
e 346 422
e 346 423
e 346 426
e 346 428
e 347 348
e 347 350
e 347 355
e 347 421
e 347 424
e 347 432
e 347 433
e 347 435
e 347 539
e 348 349
e 348 356
e 348 422
e 348 423
e 348 431
e 348 434
e 348 436
e 348 540
e 349 350
e 349 352
e 349 355
e 349 426
e 349 428
e 349 432
e 349 433
e 349 435
e 349 539
e 350 351
e 350 356
e 350 425
e 350 427
e 350 431
e 350 434
e 350 436
e 350 540
e 351 352
e 351 356
e 351 426
e 351 428
e 351 438
e 351 439
e 351 441
e 351 542
e 352 355
e 352 425
e 352 427
e 352 437
e 352 440
e 352 442
e 352 541
e 353 354
e 353 415
e 353 424
e 353 430
e 353 431
e 353 494
e 353 503
e 353 538
e 353 583
e 354 416
e 354 423
e 354 429
e 354 432
e 354 493
e 354 504
e 354 537
e 354 584
e 355 356
e 355 431
e 355 434
e 355 436
e 355 438
e 355 439
e 355 441
e 355 540
e 355 542
e 356 432
e 356 433
e 356 435
e 356 437
e 356 440
e 356 442
e 356 539
e 356 541
e 357 358
e 357 360
e 357 366
e 357 435
e 357 441
e 357 444
e 357 451
e 357 453
e 357 510
e 357 511
e 357 589
e 358 359
e 358 365
e 358 436
e 358 442
e 358 443
e 358 452
e 358 454
e 358 509
e 358 512
e 358 590
e 359 360
e 359 361
e 359 363
e 359 435
e 359 441
e 359 444
e 359 445
e 359 447
e 359 589
e 360 362
e 360 364
e 360 436
e 360 442
e 360 443
e 360 446
e 360 448
e 360 590
e 361 362
e 361 364
e 361 440
e 361 446
e 361 448
e 361 502
e 361 543
e 361 545
e 361 588
e 362 363
e 362 439
e 362 445
e 362 447
e 362 501
e 362 544
e 362 546
e 362 587
e 363 364
e 363 365
e 363 446
e 363 448
e 363 449
e 363 548
e 363 550
e 363 593
e 364 366
e 364 445
e 364 447
e 364 450
e 364 547
e 364 549
e 364 594
e 365 366
e 365 450
e 365 451
e 365 453
e 365 510
e 365 511
e 365 547
e 365 549
e 365 594
e 366 449
e 366 452
e 366 454
e 366 509
e 366 512
e 366 548
e 366 550
e 366 593
e 367 368
e 367 514
e 367 516
e 367 570
e 367 625
e 368 515
e 368 517
e 368 569
e 368 624
e 369 370
e 369 372
e 369 455
e 369 566
e 370 371
e 370 456
e 370 565
e 371 372
e 371 455
e 371 463
e 371 522
e 371 566
e 372 456
e 372 464
e 372 521
e 372 565
e 373 374
e 373 376
e 373 467
e 373 525
e 374 375
e 374 468
e 374 526
e 375 376
e 375 458
e 375 467
e 375 525
e 376 457
e 376 468
e 376 526
e 377 378
e 377 385
e 377 462
e 377 472
e 378 386
e 378 461
e 378 471
e 379 380
e 379 386
e 379 463
e 379 466
e 379 524
e 379 626
e 380 385
e 380 464
e 380 465
e 380 523
e 380 627
e 381 382
e 381 391
e 381 477
e 382 392
e 382 478
e 383 384
e 383 457
e 383 459
e 383 470
e 383 525
e 384 458
e 384 460
e 384 469
e 384 526
e 385 386
e 385 461
e 385 471
e 386 462
e 386 472
e 387 388
e 387 390
e 387 465
e 387 474
e 387 475
e 387 524
e 387 527
e 387 568
e 388 389
e 388 466
e 388 473
e 388 476
e 388 523
e 388 528
e 388 567
e 389 390
e 389 465
e 389 474
e 389 476
e 389 480
e 389 529
e 390 466
e 390 473
e 390 475
e 390 479
e 390 530
e 391 392
e 391 407
e 391 478
e 391 483
e 392 408
e 392 477
e 392 484
e 393 394
e 393 467
e 394 468
e 395 396
e 395 397
e 395 399
e 395 479
e 396 398
e 396 400
e 396 480
e 397 398
e 397 400
e 397 480
e 398 399
e 398 479
e 399 400
e 399 480
e 399 482
e 400 479
e 400 481
e 401 402
e 401 403
e 401 473
e 401 527
e 401 529
e 401 572
e 402 404
e 402 474
e 402 528
e 402 530
e 402 571
e 403 404
e 403 405
e 403 481
e 403 572
e 403 628
e 404 406
e 404 482
e 404 571
e 404 629
e 405 406
e 405 482
e 405 485
e 405 487
e 405 571
e 405 629
e 406 481
e 406 486
e 406 488
e 406 572
e 406 628
e 407 408
e 407 409
e 407 478
e 407 484
e 407 531
e 408 410
e 408 477
e 408 483
e 408 532
e 409 410
e 409 477
e 409 492
e 409 532
e 409 533
e 410 478
e 410 491
e 410 531
e 410 534
e 411 412
e 411 414
e 411 426
e 411 495
e 411 497
e 412 413
e 412 425
e 412 496
e 412 498
e 413 414
e 413 426
e 413 495
e 413 497
e 414 425
e 414 496
e 414 498
e 415 416
e 415 429
e 415 483
e 415 492
e 415 504
e 415 531
e 415 633
e 416 430
e 416 484
e 416 491
e 416 503
e 416 532
e 416 632
e 417 418
e 417 420
e 417 421
e 417 493
e 417 535
e 418 419
e 418 422
e 418 494
e 418 536
e 419 420
e 419 421
e 419 493
e 419 535
e 420 422
e 420 494
e 420 536
e 421 422
e 421 423
e 421 494
e 421 536
e 422 424
e 422 493
e 422 535
e 423 424
e 423 431
e 423 494
e 423 538
e 423 583
e 424 432
e 424 493
e 424 537
e 424 584
e 425 426
e 425 428
e 425 495
e 425 497
e 426 427
e 426 496
e 426 498
e 427 428
e 427 434
e 427 437
e 427 496
e 427 500
e 427 585
e 428 433
e 428 438
e 428 495
e 428 499
e 428 586
e 429 430
e 429 503
e 429 536
e 429 537
e 429 635
e 429 636
e 430 504
e 430 535
e 430 538
e 430 634
e 430 637
e 431 432
e 431 433
e 431 435
e 431 493
e 431 537
e 431 539
e 431 584
e 432 434
e 432 436
e 432 494
e 432 538
e 432 540
e 432 583
e 433 434
e 433 436
e 433 437
e 433 496
e 433 500
e 433 540
e 433 585
e 434 435
e 434 438
e 434 495
e 434 499
e 434 539
e 434 586
e 435 436
e 435 442
e 435 443
e 435 540
e 435 590
e 436 441
e 436 444
e 436 539
e 436 589
e 437 438
e 437 439
e 437 441
e 437 495
e 437 499
e 437 542
e 437 586
e 438 440
e 438 442
e 438 496
e 438 500
e 438 541
e 438 585
e 439 440
e 439 442
e 439 502
e 439 541
e 439 543
e 439 545
e 439 588
e 440 441
e 440 501
e 440 542
e 440 544
e 440 546
e 440 587
e 441 442
e 441 443
e 441 541
e 441 590
e 442 444
e 442 542
e 442 589
e 443 444
e 443 450
e 443 506
e 443 508
e 443 551
e 443 589
e 444 449
e 444 505
e 444 507
e 444 552
e 444 590
e 445 446
e 445 448
e 445 507
e 445 544
e 445 549
e 445 592
e 446 447
e 446 508
e 446 543
e 446 550
e 446 591
e 447 448
e 447 505
e 447 546
e 447 547
e 447 591
e 448 506
e 448 545
e 448 548
e 448 592
e 449 450
e 449 506
e 449 508
e 449 547
e 449 549
e 449 551
e 449 594
e 450 505
e 450 507
e 450 548
e 450 550
e 450 552
e 450 593
e 451 452
e 451 454
e 451 509
e 451 512
e 451 596
e 451 599
e 451 601
e 451 643
e 452 453
e 452 510
e 452 511
e 452 595
e 452 600
e 452 602
e 452 642
e 453 454
e 453 509
e 453 512
e 453 595
e 453 597
e 453 639
e 453 640
e 454 510
e 454 511
e 454 596
e 454 598
e 454 638
e 454 641
e 455 456
e 455 519
e 455 565
e 456 520
e 456 566
e 457 458
e 457 460
e 457 469
e 457 526
e 458 459
e 458 470
e 458 525
e 459 460
e 459 462
e 459 469
e 459 526
e 460 461
e 460 470
e 460 525
e 461 462
e 461 472
e 462 471
e 463 464
e 463 465
e 463 521
e 463 523
e 463 627
e 464 466
e 464 522
e 464 524
e 464 626
e 465 466
e 465 473
e 465 524
e 465 626
e 466 474
e 466 523
e 466 627
e 467 468
e 467 526
e 468 525
e 469 470
e 469 471
e 469 525
e 470 472
e 470 526
e 471 472
e 473 474
e 473 528
e 473 530
e 473 571
e 474 527
e 474 529
e 474 572
e 475 476
e 475 480
e 475 523
e 475 528
e 475 529
e 475 567
e 476 479
e 476 524
e 476 527
e 476 530
e 476 568
e 477 478
e 477 531
e 478 532
e 479 480
e 479 529
e 480 530
e 481 482
e 481 571
e 481 629
e 482 572
e 482 628
e 483 484
e 483 491
e 483 532
e 483 632
e 484 492
e 484 531
e 484 633
e 485 486
e 485 488
e 485 573
e 485 629
e 485 652
e 486 487
e 486 574
e 486 628
e 486 653
e 487 488
e 487 576
e 487 653
e 487 656
e 488 575
e 488 652
e 488 657
e 489 490
e 489 578
e 489 580
e 489 658
e 490 577
e 490 579
e 490 659
e 491 492
e 491 531
e 491 533
e 491 633
e 492 532
e 492 534
e 492 632
e 493 494
e 493 536
e 493 538
e 493 583
e 494 535
e 494 537
e 494 584
e 495 496
e 495 498
e 495 500
e 495 585
e 496 497
e 496 499
e 496 586
e 497 498
e 497 499
e 497 501
e 497 579
e 497 581
e 498 500
e 498 502
e 498 580
e 498 582
e 499 500
e 499 502
e 499 580
e 499 582
e 499 585
e 500 501
e 500 579
e 500 581
e 500 586
e 501 502
e 501 543
e 501 545
e 501 580
e 501 582
e 501 588
e 502 544
e 502 546
e 502 579
e 502 581
e 502 587
e 503 504
e 503 533
e 503 632
e 503 635
e 504 534
e 504 633
e 504 634
e 505 506
e 505 508
e 505 545
e 505 548
e 505 551
e 505 592
e 506 507
e 506 546
e 506 547
e 506 552
e 506 591
e 507 508
e 507 543
e 507 550
e 507 551
e 507 591
e 508 544
e 508 549
e 508 552
e 508 592
e 509 510
e 509 511
e 509 551
e 509 593
e 509 639
e 510 512
e 510 552
e 510 594
e 510 638
e 511 512
e 511 641
e 511 642
e 511 644
e 512 640
e 512 643
e 512 645
e 513 515
e 513 561
e 513 563
e 513 564
e 513 619
e 513 620
e 514 515
e 514 517
e 514 561
e 514 563
e 514 620
e 514 624
e 515 516
e 515 562
e 515 621
e 515 625
e 516 517
e 516 562
e 516 622
e 516 624
e 517 563
e 517 623
e 517 625
e 518 520
e 518 561
e 518 564
e 518 619
e 519 520
e 519 564
e 521 522
e 521 565
e 521 568
e 521 627
e 522 566
e 522 567
e 522 626
e 523 524
e 523 527
e 523 568
e 523 626
e 524 528
e 524 567
e 524 627
e 525 526
e 527 528
e 527 530
e 527 567
e 527 571
e 528 529
e 528 568
e 528 572
e 529 530
e 529 571
e 530 572
e 531 532
e 531 632
e 532 633
e 533 534
e 533 633
e 533 634
e 534 632
e 534 635
e 535 536
e 535 537
e 535 635
e 535 636
e 536 538
e 536 634
e 536 637
e 537 538
e 537 583
e 537 634
e 537 637
e 538 584
e 538 635
e 538 636
e 539 540
e 539 584
e 539 589
e 539 637
e 540 583
e 540 590
e 540 636
e 541 542
e 541 581
e 541 585
e 541 588
e 542 582
e 542 586
e 542 587
e 543 544
e 543 546
e 543 549
e 543 587
e 543 592
e 544 545
e 544 550
e 544 588
e 544 591
e 545 546
e 545 547
e 545 587
e 545 591
e 546 548
e 546 588
e 546 592
e 547 548
e 547 550
e 547 592
e 547 593
e 548 549
e 548 591
e 548 594
e 549 550
e 549 591
e 549 593
e 550 592
e 550 594
e 551 552
e 551 594
e 551 638
e 552 593
e 552 639
e 553 554
e 553 556
e 553 558
e 553 559
e 553 599
e 553 603
e 553 608
e 553 610
e 553 617
e 553 648
e 554 555
e 554 557
e 554 560
e 554 600
e 554 604
e 554 607
e 554 609
e 554 618
e 554 649
e 555 556
e 555 558
e 555 559
e 555 605
e 555 607
e 555 612
e 555 614
e 555 617
e 555 648
e 556 557
e 556 560
e 556 606
e 556 608
e 556 611
e 556 613
e 556 618
e 556 649
e 557 558
e 557 559
e 557 609
e 557 611
e 557 616
e 557 617
e 557 647
e 557 648
e 558 560
e 558 610
e 558 612
e 558 615
e 558 618
e 558 646
e 558 649
e 559 560
e 559 614
e 559 616
e 559 618
e 559 649
e 559 650
e 559 654
e 560 613
e 560 615
e 560 617
e 560 648
e 560 651
e 560 655
e 561 562
e 561 621
e 562 563
e 562 620
e 562 623
e 563 621
e 563 622
e 565 566
e 565 567
e 565 626
e 566 568
e 566 627
e 567 568
e 567 627
e 568 626
e 569 570
e 569 624
e 570 625
e 571 572
e 571 628
e 572 629
e 573 574
e 573 575
e 573 577
e 573 628
e 573 630
e 573 653
e 574 576
e 574 578
e 574 629
e 574 631
e 574 652
e 575 576
e 575 578
e 575 631
e 575 653
e 575 656
e 576 577
e 576 630
e 576 652
e 576 657
e 577 578
e 577 580
e 577 631
e 577 658
e 578 579
e 578 630
e 578 659
e 579 580
e 579 582
e 579 658
e 580 581
e 580 659
e 581 582
e 581 586
e 581 587
e 582 585
e 582 588
e 583 584
e 583 589
e 583 637
e 584 590
e 584 636
e 585 586
e 585 587
e 586 588
e 587 588
e 589 590
e 589 636
e 590 637
e 591 592
e 593 594
e 593 638
e 594 639
e 595 596
e 595 598
e 595 599
e 595 601
e 595 638
e 595 641
e 595 643
e 596 597
e 596 600
e 596 602
e 596 639
e 596 640
e 596 642
e 597 598
e 597 602
e 597 603
e 597 605
e 597 638
e 597 641
e 597 645
e 598 601
e 598 604
e 598 606
e 598 639
e 598 640
e 598 644
e 599 600
e 599 602
e 599 604
e 599 607
e 599 609
e 599 642
e 600 601
e 600 603
e 600 608
e 600 610
e 600 643
e 601 602
e 601 603
e 601 605
e 601 642
e 601 645
e 602 604
e 602 606
e 602 643
e 602 644
e 603 604
e 603 606
e 603 607
e 603 609
e 603 644
e 604 605
e 604 608
e 604 610
e 604 645
e 605 606
e 605 608
e 605 611
e 605 613
e 605 644
e 606 607
e 606 612
e 606 614
e 606 645
e 607 608
e 607 610
e 607 611
e 607 613
e 608 609
e 608 612
e 608 614
e 609 610
e 609 612
e 609 615
e 609 646
e 610 611
e 610 616
e 610 647
e 611 612
e 611 614
e 611 615
e 611 646
e 612 613
e 612 616
e 612 647
e 613 614
e 613 616
e 613 650
e 613 654
e 614 615
e 614 651
e 614 655
e 615 616
e 615 647
e 615 650
e 615 654
e 616 646
e 616 651
e 616 655
e 617 618
e 617 647
e 617 649
e 617 651
e 617 661
e 618 646
e 618 648
e 618 650
e 618 660
e 619 620
e 619 622
e 620 621
e 620 623
e 621 622
e 622 623
e 624 625
e 626 627
e 628 629
e 628 652
e 629 653
e 630 631
e 630 657
e 630 659
e 631 656
e 631 658
e 632 633
e 632 634
e 633 635
e 634 635
e 634 636
e 635 637
e 636 637
e 638 639
e 638 640
e 639 641
e 640 641
e 640 642
e 640 644
e 641 643
e 641 645
e 642 643
e 642 645
e 643 644
e 644 645
e 646 647
e 646 651
e 646 661
e 647 650
e 647 660
e 648 649
e 648 655
e 648 660
e 649 654
e 649 661
e 650 651
e 650 655
e 650 661
e 651 654
e 651 660
e 652 653
e 652 656
e 653 657
e 654 655
e 654 660
e 655 661
e 656 657
e 656 659
e 657 658
e 658 659
e 660 661
